
(set-logic QF_BV)

(define-fun min () (_ BitVec 8) (bvnot (bvlshr (bvnot (_ bv0 8)) (_ bv1 8))))

(define-fun max () (_ BitVec 8) (bvnot min))

(define-fun udivtotal ((a (_ BitVec 8)) (b (_ BitVec 8))) (_ BitVec 8)
  (ite (= b (_ bv0 8)) (bvnot (_ bv0 8)) (bvudiv a b))
)
(define-fun uremtotal ((a (_ BitVec 8)) (b (_ BitVec 8))) (_ BitVec 8)
  (ite (= b (_ bv0 8)) a (bvurem a b))
)

(declare-fun s () (_ BitVec 8))
(declare-fun t () (_ BitVec 8))
(define-fun inv ((s (_ BitVec 8)) (t (_ BitVec 8))) (_ BitVec 8) (bvadd #b01111111 #b10000000))
(define-fun l ((x (_ BitVec 8))) Bool  (bvugt (bvlshr (inv s t) s) t))
(define-fun SC () Bool (bvult t (bvlshr (bvnot s) s)))
(define-fun is_cond_inv () Bool (=> SC (l (inv s t))))

(assert (not is_cond_inv))
(check-sat)
